p cnf 18 39
12 -1 0
-11 -5 -15 0
13 2 0
-12 13 0
-11 2 -12 0
14 -3 0
-13 14 0
-11 -3 -13 0
15 4 0
-14 15 0
-11 4 -14 0
-1 -11 0
-17 1 5 0
2 -17 0
-1 -2 0
1 2 0
4 -11 0
-3 -4 0
3 4 0
-18 -3 -5 0
-5 -11 -18 0
-5 -6 0
5 6 0
8 -11 0
-7 -8 0
7 8 0
-9 -11 -18 0
10 -17 0
-9 -10 0
9 10 0
-1 2 -3 -4 -5 6 -7 8 -9 10 0
-1 2 -3 4 -5 6 -7 8 -9 10 0
1 -2 3 -4 5 -6 7 -8 9 -10 0
1 -2 3 -4 -5 6 -7 8 -9 10 0
1 -2 3 -4 -5 6 7 -8 9 -10 0
1 -2 3 -4 -5 6 -7 8 9 -10 0
-1 2 3 -4 -5 6 -7 8 9 -10 0
-1 2 3 -4 5 -6 -7 8 9 -10 0
1 -2 3 -4 5 -6 -7 8 9 -10 0
